data/CVRPLIB/Vrp-Set-XML100/instances/XML100_1216_16.vrp
NAME : XML100_1216_16
COMMENT : Generated by Queiroga, Sadykov, Uchoa, and Vidal (2021)
TYPE : CVRP
DIMENSION : 101
EDGE_WEIGHT_TYPE : EUC_2D
CAPACITY : 35
NODE_COORD_SECTION
1    171  550 
2    243  72  
3    236  76  
4    264  10  
5    231  89  
6    179  291 
7    171  141 
8    146  203 
9    200  260 
10   232  860 
11   196  113 
12   97   128 
13   195  270 
14   301  139 
15   97   75  
16   284  222 
17   286  60  
18   177  224 
19   199  461 
20   108  166 
21   113  982 
22   40   249 
23   239  791 
24   141  719 
25   144  284 
26   264  265 
27   246  833 
28   275  212 
29   334  29  
30   220  292 
31   294  703 
32   105  272 
33   206  800 
34   251  799 
35   297  312 
36   333  31  
37   296  729 
38   170  235 
39   212  775 
40   215  794 
41   246  732 
42   263  931 
43   164  156 
44   140  876 
45   203  195 
46   251  902 
47   287  113 
48   150  317 
49   184  351 
50   265  99  
51   129  118 
52   91   792 
53   83   17  
54   200  127 
55   81   159 
56   288  390 
57   237  215 
58   96   229 
59   169  325 
60   164  895 
61   178  353 
62   225  290 
63   295  846 
64   226  265 
65   56   988 
66   194  215 
67   321  8   
68   260  853 
69   312  640 
70   168  218 
71   298  336 
72   278  329 
73   64   643 
74   182  789 
75   13   43  
76   86   86  
77   314  87  
78   174  289 
79   400  776 
80   139  222 
81   194  31  
82   241  844 
83   99   184 
84   267  977 
85   24   349 
86   5    486 
87   228  56  
88   266  221 
89   114  367 
90   276  71  
91   189  311 
92   162  812 
93   177  849 
94   250  889 
95   212  268 
96   234  324 
97   34   850 
98   170  57  
99   186  808 
100  216  67  
101  127  1   
DEMAND_SECTION
1    0   
2    1   
3    1   
4    1   
5    1   
6    1   
7    1   
8    1   
9    1   
10   1   
11   1   
12   1   
13   1   
14   1   
15   1   
16   1   
17   1   
18   1   
19   1   
20   1   
21   1   
22   1   
23   1   
24   1   
25   1   
26   1   
27   1   
28   1   
29   1   
30   1   
31   1   
32   1   
33   1   
34   1   
35   1   
36   1   
37   1   
38   1   
39   1   
40   1   
41   1   
42   1   
43   1   
44   1   
45   1   
46   1   
47   1   
48   1   
49   1   
50   1   
51   1   
52   1   
53   1   
54   1   
55   1   
56   1   
57   1   
58   1   
59   1   
60   1   
61   1   
62   1   
63   1   
64   1   
65   1   
66   1   
67   1   
68   1   
69   1   
70   1   
71   1   
72   1   
73   1   
74   1   
75   1   
76   1   
77   1   
78   1   
79   1   
80   1   
81   1   
82   1   
83   1   
84   1   
85   1   
86   1   
87   1   
88   1   
89   1   
90   1   
91   1   
92   1   
93   1   
94   1   
95   1   
96   1   
97   1   
98   1   
99   1   
100  1   
101  1   
DEPOT_SECTION
1
-1
EOF
