data/CVRPLIB/Vrp-Set-XML100/solutions/XML100_1216_16.sol
Route #1: 68 30 40 36 78 62 67 83 41 45 93 9 81 26 33 22 38 39 32 73 98 91 92 43 59 20 64 96 51 23 72
Route #2: 55 70 71 34 25 87 15 27 13 46 76 35 28 66 3 16 89 49 4 2 1 86 99 80 97 100 52 74 14 75 11 54 21 84 85
Route #3: 88 47 58 90 5 77 24 31 57 82 19 50 10 53 6 42 7 79 69 37 17 65 44 56 63 94 8 12 29 61 95 48 60 18
Cost 5115
